c File: flat50_3_0.col
c
c SOURCE: Joseph Culberson (joe@cs.ualberta.ca)
c DESCRIPTION: Quasi-random coloring problem
c              generated with flatness = 0
c                             probability = 0.139
c                             known coloring = 3
c                             random seed = 1934
c              Creation Date:  Tue Jun  9 12:21:32 1998
c Maximum degree = 8 Minimum degree = 2
c p edge 50 115
c cnf created by edge2cnf
p cnf 150 545
-1 -2 0
-1 -3 0
-2 -3 0
1 2 3 0
-4 -5 0
-4 -6 0
-5 -6 0
4 5 6 0
-7 -8 0
-7 -9 0
-8 -9 0
7 8 9 0
-10 -11 0
-10 -12 0
-11 -12 0
10 11 12 0
-13 -14 0
-13 -15 0
-14 -15 0
13 14 15 0
-16 -17 0
-16 -18 0
-17 -18 0
16 17 18 0
-19 -20 0
-19 -21 0
-20 -21 0
19 20 21 0
-22 -23 0
-22 -24 0
-23 -24 0
22 23 24 0
-25 -26 0
-25 -27 0
-26 -27 0
25 26 27 0
-28 -29 0
-28 -30 0
-29 -30 0
28 29 30 0
-31 -32 0
-31 -33 0
-32 -33 0
31 32 33 0
-34 -35 0
-34 -36 0
-35 -36 0
34 35 36 0
-37 -38 0
-37 -39 0
-38 -39 0
37 38 39 0
-40 -41 0
-40 -42 0
-41 -42 0
40 41 42 0
-43 -44 0
-43 -45 0
-44 -45 0
43 44 45 0
-46 -47 0
-46 -48 0
-47 -48 0
46 47 48 0
-49 -50 0
-49 -51 0
-50 -51 0
49 50 51 0
-52 -53 0
-52 -54 0
-53 -54 0
52 53 54 0
-55 -56 0
-55 -57 0
-56 -57 0
55 56 57 0
-58 -59 0
-58 -60 0
-59 -60 0
58 59 60 0
-61 -62 0
-61 -63 0
-62 -63 0
61 62 63 0
-64 -65 0
-64 -66 0
-65 -66 0
64 65 66 0
-67 -68 0
-67 -69 0
-68 -69 0
67 68 69 0
-70 -71 0
-70 -72 0
-71 -72 0
70 71 72 0
-73 -74 0
-73 -75 0
-74 -75 0
73 74 75 0
-76 -77 0
-76 -78 0
-77 -78 0
76 77 78 0
-79 -80 0
-79 -81 0
-80 -81 0
79 80 81 0
-82 -83 0
-82 -84 0
-83 -84 0
82 83 84 0
-85 -86 0
-85 -87 0
-86 -87 0
85 86 87 0
-88 -89 0
-88 -90 0
-89 -90 0
88 89 90 0
-91 -92 0
-91 -93 0
-92 -93 0
91 92 93 0
-94 -95 0
-94 -96 0
-95 -96 0
94 95 96 0
-97 -98 0
-97 -99 0
-98 -99 0
97 98 99 0
-100 -101 0
-100 -102 0
-101 -102 0
100 101 102 0
-103 -104 0
-103 -105 0
-104 -105 0
103 104 105 0
-106 -107 0
-106 -108 0
-107 -108 0
106 107 108 0
-109 -110 0
-109 -111 0
-110 -111 0
109 110 111 0
-112 -113 0
-112 -114 0
-113 -114 0
112 113 114 0
-115 -116 0
-115 -117 0
-116 -117 0
115 116 117 0
-118 -119 0
-118 -120 0
-119 -120 0
118 119 120 0
-121 -122 0
-121 -123 0
-122 -123 0
121 122 123 0
-124 -125 0
-124 -126 0
-125 -126 0
124 125 126 0
-127 -128 0
-127 -129 0
-128 -129 0
127 128 129 0
-130 -131 0
-130 -132 0
-131 -132 0
130 131 132 0
-133 -134 0
-133 -135 0
-134 -135 0
133 134 135 0
-136 -137 0
-136 -138 0
-137 -138 0
136 137 138 0
-139 -140 0
-139 -141 0
-140 -141 0
139 140 141 0
-142 -143 0
-142 -144 0
-143 -144 0
142 143 144 0
-145 -146 0
-145 -147 0
-146 -147 0
145 146 147 0
-148 -149 0
-148 -150 0
-149 -150 0
148 149 150 0
-88 -1 0
-89 -2 0
-90 -3 0
-97 -1 0
-98 -2 0
-99 -3 0
-115 -1 0
-116 -2 0
-117 -3 0
-58 -4 0
-59 -5 0
-60 -6 0
-82 -4 0
-83 -5 0
-84 -6 0
-94 -4 0
-95 -5 0
-96 -6 0
-100 -4 0
-101 -5 0
-102 -6 0
-142 -4 0
-143 -5 0
-144 -6 0
-76 -7 0
-77 -8 0
-78 -9 0
-121 -7 0
-122 -8 0
-123 -9 0
-127 -7 0
-128 -8 0
-129 -9 0
-55 -10 0
-56 -11 0
-57 -12 0
-79 -10 0
-80 -11 0
-81 -12 0
-100 -10 0
-101 -11 0
-102 -12 0
-106 -10 0
-107 -11 0
-108 -12 0
-109 -10 0
-110 -11 0
-111 -12 0
-124 -10 0
-125 -11 0
-126 -12 0
-94 -13 0
-95 -14 0
-96 -15 0
-100 -13 0
-101 -14 0
-102 -15 0
-112 -13 0
-113 -14 0
-114 -15 0
-121 -13 0
-122 -14 0
-123 -15 0
-124 -13 0
-125 -14 0
-126 -15 0
-130 -13 0
-131 -14 0
-132 -15 0
-103 -16 0
-104 -17 0
-105 -18 0
-133 -16 0
-134 -17 0
-135 -18 0
-139 -16 0
-140 -17 0
-141 -18 0
-97 -19 0
-98 -20 0
-99 -21 0
-127 -19 0
-128 -20 0
-129 -21 0
-142 -19 0
-143 -20 0
-144 -21 0
-73 -22 0
-74 -23 0
-75 -24 0
-85 -22 0
-86 -23 0
-87 -24 0
-115 -22 0
-116 -23 0
-117 -24 0
-121 -22 0
-122 -23 0
-123 -24 0
-127 -22 0
-128 -23 0
-129 -24 0
-61 -25 0
-62 -26 0
-63 -27 0
-70 -25 0
-71 -26 0
-72 -27 0
-85 -25 0
-86 -26 0
-87 -27 0
-103 -25 0
-104 -26 0
-105 -27 0
-106 -25 0
-107 -26 0
-108 -27 0
-109 -25 0
-110 -26 0
-111 -27 0
-115 -25 0
-116 -26 0
-117 -27 0
-52 -28 0
-53 -29 0
-54 -30 0
-58 -28 0
-59 -29 0
-60 -30 0
-88 -28 0
-89 -29 0
-90 -30 0
-115 -28 0
-116 -29 0
-117 -30 0
-58 -31 0
-59 -32 0
-60 -33 0
-91 -31 0
-92 -32 0
-93 -33 0
-136 -31 0
-137 -32 0
-138 -33 0
-73 -34 0
-74 -35 0
-75 -36 0
-85 -34 0
-86 -35 0
-87 -36 0
-139 -34 0
-140 -35 0
-141 -36 0
-73 -37 0
-74 -38 0
-75 -39 0
-76 -37 0
-77 -38 0
-78 -39 0
-82 -37 0
-83 -38 0
-84 -39 0
-109 -37 0
-110 -38 0
-111 -39 0
-118 -37 0
-119 -38 0
-120 -39 0
-127 -37 0
-128 -38 0
-129 -39 0
-55 -40 0
-56 -41 0
-57 -42 0
-61 -40 0
-62 -41 0
-63 -42 0
-73 -40 0
-74 -41 0
-75 -42 0
-82 -40 0
-83 -41 0
-84 -42 0
-103 -40 0
-104 -41 0
-105 -42 0
-145 -40 0
-146 -41 0
-147 -42 0
-52 -43 0
-53 -44 0
-54 -45 0
-61 -43 0
-62 -44 0
-63 -45 0
-82 -43 0
-83 -44 0
-84 -45 0
-100 -43 0
-101 -44 0
-102 -45 0
-118 -46 0
-119 -47 0
-120 -48 0
-130 -46 0
-131 -47 0
-132 -48 0
-64 -49 0
-65 -50 0
-66 -51 0
-88 -49 0
-89 -50 0
-90 -51 0
-94 -49 0
-95 -50 0
-96 -51 0
-97 -49 0
-98 -50 0
-99 -51 0
-121 -49 0
-122 -50 0
-123 -51 0
-139 -49 0
-140 -50 0
-141 -51 0
-145 -49 0
-146 -50 0
-147 -51 0
-148 -49 0
-149 -50 0
-150 -51 0
-103 -52 0
-104 -53 0
-105 -54 0
-133 -52 0
-134 -53 0
-135 -54 0
-142 -55 0
-143 -56 0
-144 -57 0
-139 -58 0
-140 -59 0
-141 -60 0
-106 -61 0
-107 -62 0
-108 -63 0
-124 -61 0
-125 -62 0
-126 -63 0
-136 -61 0
-137 -62 0
-138 -63 0
-115 -64 0
-116 -65 0
-117 -66 0
-133 -64 0
-134 -65 0
-135 -66 0
-136 -64 0
-137 -65 0
-138 -66 0
-121 -67 0
-122 -68 0
-123 -69 0
-124 -67 0
-125 -68 0
-126 -69 0
-115 -70 0
-116 -71 0
-117 -72 0
-124 -73 0
-125 -74 0
-126 -75 0
-142 -73 0
-143 -74 0
-144 -75 0
-145 -73 0
-146 -74 0
-147 -75 0
-148 -73 0
-149 -74 0
-150 -75 0
-112 -76 0
-113 -77 0
-114 -78 0
-121 -76 0
-122 -77 0
-123 -78 0
-130 -76 0
-131 -77 0
-132 -78 0
-109 -79 0
-110 -80 0
-111 -81 0
-136 -79 0
-137 -80 0
-138 -81 0
-103 -82 0
-104 -83 0
-105 -84 0
-139 -82 0
-140 -83 0
-141 -84 0
-109 -85 0
-110 -86 0
-111 -87 0
-136 -85 0
-137 -86 0
-138 -87 0
-139 -85 0
-140 -86 0
-141 -87 0
-109 -91 0
-110 -92 0
-111 -93 0
-118 -91 0
-119 -92 0
-120 -93 0
-148 -91 0
-149 -92 0
-150 -93 0
-106 -94 0
-107 -95 0
-108 -96 0
-112 -94 0
-113 -95 0
-114 -96 0
-142 -94 0
-143 -95 0
-144 -96 0
-115 -97 0
-116 -98 0
-117 -99 0
-112 -100 0
-113 -101 0
-114 -102 0
-127 -100 0
-128 -101 0
-129 -102 0
-139 -100 0
-140 -101 0
-141 -102 0
-142 -100 0
-143 -101 0
-144 -102 0
